165
100000
50039
84533
1002
15427
8516
8513
27385
23235
49961
54597
82885
80799
43359
71842
92033
80246
78526
51
55898
54996
15638
9069
12151
20215
10158
29436
74960
21128
97772
5945
59131
40869
33518
3996
23630
17086
9447
11435
84823
21179
34766
30543
57739
8520
52222
60468
15757
48329
5410
39532
41744
7024
75720
8456
72459
21829
42239
38382
58965
16714
16370
25546
9853
10849
4796
13659
5257
85
22518
14950
43052
17703
40579
55381
23728
29940
24877
21915
75504
86172
61618
86895
5753
58537
1275
59421
26742
13174
89794
6330
76207
2598
91484
14850
82217
3187
84822
40121
47778
5626
50034
9845
13828
6329
53755
19754
10972
34475
16669
21474
15767
40622
64007
7796
47501
3141
45403
35993
28349
1911
50563
72615
1032
15795
43238
13105
5791
2228
24321
19201
66
89028
7093
81600
7986
51866
47838
62988
28751
15177
16199
7670
49843
96813
33150
46037
39814
57761
44102
17115
86577
75345
15178
75123
92907
39186
12526
35706
18400
7967
41463
14875
73258
82297
49371
